30
1 0 26
2 0 19
2 1 51
3 0 32
3 1 46
3 2 44
4 0 25
4 1 19
4 2 34
4 3 45
5 0 7
5 1 60
5 2 38
5 3 43
5 4 45
6 0 13
6 1 33
6 2 10
6 3 56
6 4 39
6 5 33
7 0 39
7 1 57
7 2 9
7 3 58
7 4 28
7 5 51
7 6 7
8 0 19
8 1 19
8 2 48
8 3 43
8 4 23
8 5 58
8 6 29
8 7 29
9 0 38
9 1 7
9 2 39
9 3 29
9 4 9
9 5 21
9 6 30
9 7 7
9 8 42
10 0 44
10 1 14
10 2 12
10 3 39
10 4 30
10 5 57
10 6 56
10 7 55
10 8 52
10 9 3
11 0 53
11 1 58
11 2 48
11 3 21
11 4 57
11 5 54
11 6 39
11 7 50
11 8 14
11 9 52
11 10 24
12 0 56
12 1 9
12 2 23
12 3 26
12 4 19
12 5 56
12 6 18
12 7 54
12 8 51
12 9 45
12 10 35
12 11 3
13 0 17
13 1 5
13 2 10
13 3 6
13 4 32
13 5 44
13 6 21
13 7 31
13 8 57
13 9 48
13 10 34
13 11 2
13 12 46
14 0 43
14 1 47
14 2 15
14 3 29
14 4 48
14 5 26
14 6 9
14 7 12
14 8 12
14 9 47
14 10 37
14 11 57
14 12 1
14 13 26
15 0 49
15 1 30
15 2 5
15 3 53
15 4 7
15 5 20
15 6 35
15 7 35
15 8 49
15 9 45
15 10 38
15 11 4
15 12 50
15 13 5
15 14 27
16 0 47
16 1 18
16 2 46
16 3 35
16 4 55
16 5 31
16 6 37
16 7 32
16 8 14
16 9 46
16 10 31
16 11 45
16 12 45
16 13 59
16 14 26
16 15 35
17 0 53
17 1 21
17 2 26
17 3 53
17 4 4
17 5 6
17 6 10
17 7 25
17 8 29
17 9 13
17 10 55
17 11 57
17 12 53
17 13 1
17 14 13
17 15 1
17 16 55
18 0 19
18 1 40
18 2 33
18 3 31
18 4 12
18 5 22
18 6 53
18 7 1
18 8 11
18 9 12
18 10 54
18 11 15
18 12 32
18 13 52
18 14 16
18 15 40
18 16 1
18 17 16
19 0 58
19 1 22
19 2 11
19 3 45
19 4 46
19 5 27
19 6 60
19 7 24
19 8 7
19 9 7
19 10 42
19 11 19
19 12 43
19 13 30
19 14 49
19 15 20
19 16 50
19 17 2
19 18 49
20 0 1
20 1 52
20 2 56
20 3 12
20 4 38
20 5 2
20 6 9
20 7 22
20 8 33
20 9 58
20 10 33
20 11 4
20 12 8
20 13 34
20 14 40
20 15 5
20 16 10
20 17 40
20 18 59
20 19 26
21 0 34
21 1 6
21 2 28
21 3 23
21 4 26
21 5 14
21 6 13
21 7 51
21 8 9
21 9 16
21 10 1
21 11 6
21 12 58
21 13 36
21 14 33
21 15 51
21 16 10
21 17 17
21 18 11
21 19 12
21 20 47
22 0 14
22 1 51
22 2 48
22 3 34
22 4 43
22 5 26
22 6 23
22 7 36
22 8 23
22 9 23
22 10 39
22 11 42
22 12 46
22 13 56
22 14 46
22 15 39
22 16 6
22 17 45
22 18 19
22 19 49
22 20 44
22 21 5
23 0 21
23 1 36
23 2 40
23 3 37
23 4 49
23 5 58
23 6 55
23 7 51
23 8 37
23 9 53
23 10 43
23 11 23
23 12 60
23 13 28
23 14 44
23 15 35
23 16 59
23 17 6
23 18 53
23 19 38
23 20 11
23 21 50
23 22 23
24 0 41
24 1 14
24 2 57
24 3 8
24 4 47
24 5 17
24 6 21
24 7 34
24 8 43
24 9 53
24 10 11
24 11 29
24 12 8
24 13 48
24 14 57
24 15 43
24 16 16
24 17 36
24 18 60
24 19 29
24 20 21
24 21 23
24 22 55
24 23 34
25 0 27
25 1 27
25 2 36
25 3 11
25 4 25
25 5 19
25 6 46
25 7 56
25 8 4
25 9 11
25 10 9
25 11 49
25 12 46
25 13 26
25 14 55
25 15 55
25 16 17
25 17 24
25 18 45
25 19 46
25 20 6
25 21 59
25 22 44
25 23 29
25 24 10
26 0 52
26 1 4
26 2 30
26 3 16
26 4 57
26 5 11
26 6 12
26 7 39
26 8 29
26 9 48
26 10 48
26 11 52
26 12 29
26 13 53
26 14 31
26 15 23
26 16 30
26 17 47
26 18 41
26 19 60
26 20 28
26 21 50
26 22 13
26 23 52
26 24 27
26 25 7
27 0 54
27 1 34
27 2 24
27 3 29
27 4 17
27 5 42
27 6 19
27 7 43
27 8 2
27 9 51
27 10 27
27 11 34
27 12 5
27 13 60
27 14 18
27 15 1
27 16 5
27 17 36
27 18 39
27 19 7
27 20 51
27 21 53
27 22 56
27 23 3
27 24 48
27 25 22
27 26 29
28 0 21
28 1 33
28 2 14
28 3 46
28 4 39
28 5 22
28 6 26
28 7 21
28 8 50
28 9 2
28 10 26
28 11 22
28 12 10
28 13 1
28 14 56
28 15 41
28 16 18
28 17 33
28 18 24
28 19 1
28 20 11
28 21 44
28 22 33
28 23 49
28 24 47
28 25 36
28 26 40
28 27 29
29 0 39
29 1 4
29 2 21
29 3 24
29 4 42
29 5 3
29 6 42
29 7 42
29 8 15
29 9 9
29 10 24
29 11 50
29 12 50
29 13 45
29 14 11
29 15 29
29 16 8
29 17 28
29 18 23
29 19 4
29 20 29
29 21 10
29 22 46
29 23 5
29 24 39
29 25 6
29 26 54
29 27 18
29 28 36
